IndustryOR/id83/workforce_scheduling.lp
\Generated by Cardinal Operations

Minimize
   x(0) + x(1) + x(2) + x(3) + x(4) + x(5) 
Subject To
 demand_t1: x(5) + x(0) >= 4
 demand_t2: x(0) + x(1) >= 8
 demand_t3: x(1) + x(2) >= 10
 demand_t4: x(2) + x(3) >= 7
 demand_t5: x(3) + x(4) >= 12
 demand_t6: x(4) + x(5) >= 4
Generals
 x(0)  x(1)  x(2)  x(3)  x(4)  x(5)  
END

