IndustryOR/id83/workforce_scheduling.sol
# Objective value 26
x(0)      4
x(1)      10
x(2)      0
x(3)      8
x(4)      4
x(5)      0
